
===== New CPLEX run =====
Instance: /home/yorig/tuner/mpils-tests/instances/miplib/easy/lotsize.mps
Config: /scratch/yorig/mpils-results-grid-ticks-10000/easy/16proc/seed-9/4_lotsize_seed-9_20260425_202405/iterated_local_search/run_3_worker_0/ils_config_17116011387795844719.prm
========================

Selected objective sense:  MINIMIZE
Selected objective  name:  R1921
Selected RHS        name:  B
Selected bound      name:  BOUND
Version identifier: 22.1.2.0 | 2024-11-26 | 0edbb82fd
CPXPARAM_Threads                                 8
CPXPARAM_Parallel                                1
CPXPARAM_MIP_Cuts_Cliques                        -1
CPXPARAM_MIP_Cuts_FlowCovers                     2
CPXPARAM_MIP_Cuts_Implied                        2
CPXPARAM_MIP_Cuts_GUBCovers                      -1
CPXPARAM_MIP_Limits_GomoryCand                   800
CPXPARAM_MIP_Cuts_Gomory                         1
CPXPARAM_MIP_Cuts_PathCut                        -1
CPXPARAM_MIP_Cuts_MIRCut                         2
CPXPARAM_MIP_Cuts_Disjunctive                    -1
CPXPARAM_Emphasis_MIP                            1
CPXPARAM_DetTimeLimit                            10000
Tried aggregator 1 time.
MIP Presolve eliminated 595 rows and 0 columns.
MIP Presolve added 1190 rows and 0 columns.
MIP Presolve modified 10 coefficients.
Reduced MIP has 2515 rows, 2985 columns, and 7755 nonzeros.
Reduced MIP has 1195 binaries, 0 generals, 0 SOSs, and 0 indicators.
Presolve time = 0.00 sec. (4.53 ticks)
Probing fixed 0 vars, tightened 5487 bounds.
Probing time = 0.01 sec. (18.38 ticks)
Tried aggregator 2 times.
Detecting symmetries...
MIP Presolve modified 1206 coefficients.
Aggregator did 10 substitutions.
Reduced MIP has 2505 rows, 2975 columns, and 7735 nonzeros.
Reduced MIP has 1195 binaries, 0 generals, 0 SOSs, and 0 indicators.
Presolve time = 0.00 sec. (6.66 ticks)
Probing fixed 0 vars, tightened 2401 bounds.
Probing time = 0.00 sec. (6.41 ticks)
Clique table members: 190.
MIP emphasis: integer feasibility.
MIP search method: dynamic search.
Parallel mode: deterministic, using up to 8 threads.
Root relaxation solution time = 0.01 sec. (9.71 ticks)

        Nodes                                         Cuts/
   Node  Left     Objective  IInf  Best Integer    Best Bound    ItCnt     Gap

      0     0   348385.3466   472                 348385.3466      882         
      0     0   480717.5110   632                   Cuts: 726     1890         
      0     0   691088.7303   617                   Cuts: 726     2847         
*     0+    0                       1.01740e+07   691088.7303            93.21%
*     0+    0                      7973370.0000   691088.7303            91.33%
      0     0   884092.2687   651  7973370.0000     Cuts: 726     3722   88.91%
Detecting symmetries...
      0     2   884092.2687   651  7973370.0000   903462.5747     3722   88.67%
Elapsed time = 0.45 sec. (667.47 ticks, tree = 0.02 MB, solutions = 2)
    516   434   968427.5412   489  7973370.0000   903462.5747     8808   88.67%
   1201  1054  1059156.5675   432  7973370.0000   903462.5747    16975   88.67%

Performing restart 1

Repeating presolve.
Tried aggregator 1 time.
MIP Presolve modified 1159 coefficients.
Reduced MIP has 2505 rows, 2975 columns, and 7735 nonzeros.
Reduced MIP has 1195 binaries, 0 generals, 0 SOSs, and 0 indicators.
Presolve time = 0.00 sec. (3.80 ticks)
Tried aggregator 1 time.
MIP Presolve modified 1008 coefficients.
Reduced MIP has 2505 rows, 2975 columns, and 7735 nonzeros.
Reduced MIP has 1195 binaries, 0 generals, 0 SOSs, and 0 indicators.
Presolve time = 0.00 sec. (5.12 ticks)
Represolve time = 0.02 sec. (18.99 ticks)
   1730     0  1016955.9936   601  7973370.0000     Cuts: 726    26184   87.25%
   1730     0  1137567.5455   612  7973370.0000     Cuts: 726    26968   85.73%
   1730     0  1200266.5507   631  7973370.0000     Cuts: 726    27657   84.95%
   1730     2  1200266.5507   631  7973370.0000  1200266.5507    27657   84.95%
   1742    14  1214968.3265   587  7973370.0000  1200305.4803    27996   84.95%
   1780    52  1239353.0753   544  7973370.0000  1200305.4803    28772   84.95%
   1795     6  1206776.9004   617  7973370.0000  1201110.0661    27817   84.94%
   1805    69  1308944.6389   715  7973370.0000  1201110.7938    31440   84.94%
   1845   107  1383578.1933   550  7973370.0000  1203566.2342    45075   84.91%
   1891   149  1309190.1937   705  7973370.0000  1209504.2395    58396   84.83%
   2449   614  1341366.5605   606  7973370.0000  1209504.2395    80506   84.83%
Elapsed time = 3.98 sec. (5315.97 ticks, tree = 1.98 MB, solutions = 2)
   3425  1427  1507454.3927   346  7973370.0000  1209504.2395   107876   84.83%
*  4185  2064      integral     0  1879721.0000  1209504.2395   123286   35.66%
*  4301+ 1909                      1716022.0000  1209504.2395            29.52%
*  4317  2135      integral     0  1686207.0000  1209504.2395   126749   28.27%
   5055  2660  1335773.4711   667  1686207.0000  1209504.2395   154232   28.27%
*  5172+ 2656                      1620531.0000  1209504.2395            25.36%
*  5187+ 2656                      1616670.0000  1209504.2395            25.19%
*  5211+ 2656                      1616505.0000  1209504.2395            25.18%
*  5223+ 2656                      1616295.0000  1209504.2395            25.17%
*  5229+ 2656                      1614805.0000  1209504.2395            25.10%
   5856  3068  1604976.1207   380  1614805.0000  1209504.2395   180904   25.10%
   6637  3841  1439102.2890   541  1614805.0000  1209504.2395   210383   25.10%

Cover cuts applied:  27
Implied bound cuts applied:  16
Flow cuts applied:  805
Mixed integer rounding cuts applied:  1043
Multi commodity flow cuts applied:  22
Lift and project cuts applied:  26
Gomory fractional cuts applied:  21

Root node processing (before b&c):
  Real time             =    0.44 sec. (665.51 ticks)
Parallel b&c, 8 threads:
  Real time             =    6.75 sec. (9337.49 ticks)
  Sync time (average)   =    0.57 sec.
  Wait time (average)   =    0.01 sec.
                          ------------
Total (root+branch&cut) =    7.19 sec. (10003.01 ticks)
Gap: 25.1%
Upper bound: 1.6148e+06
Lower bound: 1.2095e+06
End of CPLEX run. Time: 7.19362 seconds

===== New CPLEX run =====
Instance: /home/yorig/tuner/mpils-tests/instances/miplib/easy/lotsize.mps
Config: /scratch/yorig/mpils-results-grid-ticks-10000/easy/16proc/seed-9/4_lotsize_seed-9_20260425_202405/iterated_local_search/run_3_worker_0/ils_config_10088439934560928679.prm
========================

Selected objective sense:  MINIMIZE
Selected objective  name:  R1921
Selected RHS        name:  B
Selected bound      name:  BOUND
Version identifier: 22.1.2.0 | 2024-11-26 | 0edbb82fd
CPXPARAM_Threads                                 8
CPXPARAM_Parallel                                1
CPXPARAM_MIP_Cuts_Cliques                        -1
CPXPARAM_MIP_Cuts_FlowCovers                     2
CPXPARAM_MIP_Cuts_Implied                        2
CPXPARAM_MIP_Cuts_GUBCovers                      -1
CPXPARAM_MIP_Limits_GomoryCand                   800
CPXPARAM_MIP_Cuts_Gomory                         1
CPXPARAM_MIP_Cuts_PathCut                        1
CPXPARAM_MIP_Cuts_MIRCut                         2
CPXPARAM_MIP_Cuts_Disjunctive                    -1
CPXPARAM_Emphasis_MIP                            1
CPXPARAM_DetTimeLimit                            10000
Tried aggregator 1 time.
MIP Presolve eliminated 595 rows and 0 columns.
MIP Presolve added 1190 rows and 0 columns.
MIP Presolve modified 10 coefficients.
Reduced MIP has 2515 rows, 2985 columns, and 7755 nonzeros.
Reduced MIP has 1195 binaries, 0 generals, 0 SOSs, and 0 indicators.
Presolve time = 0.00 sec. (4.53 ticks)
Probing fixed 0 vars, tightened 5487 bounds.
Probing time = 0.01 sec. (18.38 ticks)
Tried aggregator 2 times.
Detecting symmetries...
MIP Presolve modified 1206 coefficients.
Aggregator did 10 substitutions.
Reduced MIP has 2505 rows, 2975 columns, and 7735 nonzeros.
Reduced MIP has 1195 binaries, 0 generals, 0 SOSs, and 0 indicators.
Presolve time = 0.00 sec. (6.66 ticks)
Probing fixed 0 vars, tightened 2401 bounds.
Probing time = 0.00 sec. (6.41 ticks)
Clique table members: 190.
MIP emphasis: integer feasibility.
MIP search method: dynamic search.
Parallel mode: deterministic, using up to 8 threads.
Root relaxation solution time = 0.01 sec. (9.71 ticks)

        Nodes                                         Cuts/
   Node  Left     Objective  IInf  Best Integer    Best Bound    ItCnt     Gap

      0     0   348385.3466   472                 348385.3466      882         
      0     0   480717.5110   632                   Cuts: 726     1890         
      0     0   689177.0104   620                   Cuts: 726     2843         
*     0+    0                       1.01740e+07   689177.0104            93.23%
*     0+    0                      7973370.0000   689177.0104            91.36%
      0     0   854311.3546   753  7973370.0000     Cuts: 726     3721   89.29%
Detecting symmetries...
      0     2   854311.3546   753  7973370.0000   854311.3546     3721   89.29%
Elapsed time = 0.42 sec. (633.75 ticks, tree = 0.02 MB, solutions = 2)
    386   342   883542.9716   662  7973370.0000   855357.3910     7778   89.27%
    936   774  1025135.5689   475  7973370.0000   855357.3910    11831   89.27%
   1636  1462  1044490.1986   466  7973370.0000   855357.3910    20186   89.27%

Performing restart 1

Repeating presolve.
Tried aggregator 1 time.
MIP Presolve modified 1158 coefficients.
Reduced MIP has 2505 rows, 2975 columns, and 7735 nonzeros.
Reduced MIP has 1195 binaries, 0 generals, 0 SOSs, and 0 indicators.
Presolve time = 0.00 sec. (3.78 ticks)
Tried aggregator 1 time.
MIP Presolve modified 1015 coefficients.
Reduced MIP has 2505 rows, 2975 columns, and 7735 nonzeros.
Reduced MIP has 1195 binaries, 0 generals, 0 SOSs, and 0 indicators.
Presolve time = 0.00 sec. (5.12 ticks)
Represolve time = 0.02 sec. (18.94 ticks)
   1750     0   981665.9371   745  7973370.0000     Cuts: 726    25775   87.69%
   1750     0  1099778.4539   707  7973370.0000     Cuts: 726    26606   86.21%
   1750     0  1167922.4093   695  7973370.0000     Cuts: 726    27254   85.35%
   1750     2  1167922.4093   695  7973370.0000  1167922.4093    27254   85.35%
   1780    23  1245332.3141   635  7973370.0000  1167969.4992    27915   85.35%
   1834    81  1243493.6428   554  7973370.0000  1167969.4992    29552   85.35%
   1910   156  1329147.0046   469  7973370.0000  1167969.4992    31493   85.35%
   1934     4  1170199.0960   679  7973370.0000  1167969.4992    27302   85.35%
   1942   180  1302567.9993   696  7973370.0000  1168376.6108    37272   85.35%
   2391   471  1355439.6622   574  7973370.0000  1197453.1152    74754   84.98%
Elapsed time = 4.08 sec. (5343.65 ticks, tree = 0.73 MB, solutions = 2)
*  2679+  704                      1978630.0000  1197453.1152            39.48%
*  2732+  842                      1959564.0000  1197453.1152            38.89%
*  2824+  974                      1948506.0000  1197453.1152            38.55%
*  3154  1190      integral     0  1929330.0000  1197453.1152   102258   37.93%
*  3162  1215      integral     0  1918638.0000  1197453.1152   105769   37.59%
*  3306+ 1137                      1807236.0000  1197453.1152            33.74%
*  3323+ 1137                      1707134.0000  1197453.1152            29.86%
*  3331+ 1137                      1700636.0000  1197453.1152            29.59%
*  3339+ 1137                      1695783.0000  1197453.1152            29.39%
*  3352+ 1137                      1694909.0000  1197453.1152            29.35%
   4585  2212  1446317.3143   324  1694909.0000  1197453.1152   148892   29.35%
   6091  3425  1595608.9365   338  1694909.0000  1197453.1152   198842   29.35%
*  6770  3935      integral     0  1686081.0000  1197453.1152   210676   28.98%
*  7014+ 4301                      1646091.0000  1197453.1152            27.25%
*  7028+ 4301                      1612149.0000  1197453.1152            25.72%
*  7048+ 4299                      1568191.0000  1197453.1152            23.64%
*  7064+ 4299                      1567169.0000  1197453.1152            23.59%
*  7069+ 4299                      1565641.0000  1197453.1152            23.52%
*  7084+ 4299                      1565411.0000  1197453.1152            23.51%
*  7095+ 4299                      1564683.0000  1197453.1152            23.47%
*  7120+ 4299                      1564295.0000  1197453.1152            23.45%
   7430  3021  1339127.9709   625  1564295.0000  1197453.1152   239991   23.45%

Cover cuts applied:  24
Implied bound cuts applied:  17
Flow cuts applied:  760
Mixed integer rounding cuts applied:  996
Flow path cuts applied:  91
Multi commodity flow cuts applied:  18
Lift and project cuts applied:  34
Gomory fractional cuts applied:  26

Root node processing (before b&c):
  Real time             =    0.41 sec. (632.05 ticks)
Parallel b&c, 8 threads:
  Real time             =    8.99 sec. (9371.51 ticks)
  Sync time (average)   =    1.73 sec.
  Wait time (average)   =    0.01 sec.
                          ------------
Total (root+branch&cut) =    9.40 sec. (10003.56 ticks)
Gap: 23.45%
Upper bound: 1.5643e+06
Lower bound: 1.19745e+06
End of CPLEX run. Time: 9.39832 seconds

===== New CPLEX run =====
Instance: /home/yorig/tuner/mpils-tests/instances/miplib/easy/lotsize.mps
Config: /scratch/yorig/mpils-results-grid-ticks-10000/easy/16proc/seed-9/4_lotsize_seed-9_20260425_202405/iterated_local_search/run_3_worker_0/ils_config_5048510294745137977.prm
========================

Selected objective sense:  MINIMIZE
Selected objective  name:  R1921
Selected RHS        name:  B
Selected bound      name:  BOUND
Version identifier: 22.1.2.0 | 2024-11-26 | 0edbb82fd
CPXPARAM_Threads                                 8
CPXPARAM_Parallel                                1
CPXPARAM_MIP_Cuts_Cliques                        -1
CPXPARAM_MIP_Cuts_FlowCovers                     2
CPXPARAM_MIP_Cuts_Implied                        2
CPXPARAM_MIP_Cuts_GUBCovers                      -1
CPXPARAM_MIP_Limits_GomoryCand                   150
CPXPARAM_MIP_Cuts_Gomory                         1
CPXPARAM_MIP_Cuts_MIRCut                         2
CPXPARAM_MIP_Cuts_Disjunctive                    -1
CPXPARAM_Emphasis_MIP                            1
CPXPARAM_DetTimeLimit                            10000
Tried aggregator 1 time.
MIP Presolve eliminated 595 rows and 0 columns.
MIP Presolve added 1190 rows and 0 columns.
MIP Presolve modified 10 coefficients.
Reduced MIP has 2515 rows, 2985 columns, and 7755 nonzeros.
Reduced MIP has 1195 binaries, 0 generals, 0 SOSs, and 0 indicators.
Presolve time = 0.00 sec. (4.53 ticks)
Probing fixed 0 vars, tightened 5487 bounds.
Probing time = 0.01 sec. (18.38 ticks)
Tried aggregator 2 times.
Detecting symmetries...
MIP Presolve modified 1206 coefficients.
Aggregator did 10 substitutions.
Reduced MIP has 2505 rows, 2975 columns, and 7735 nonzeros.
Reduced MIP has 1195 binaries, 0 generals, 0 SOSs, and 0 indicators.
Presolve time = 0.00 sec. (6.66 ticks)
Probing fixed 0 vars, tightened 2401 bounds.
Probing time = 0.00 sec. (6.41 ticks)
Clique table members: 190.
MIP emphasis: integer feasibility.
MIP search method: dynamic search.
Parallel mode: deterministic, using up to 8 threads.
Root relaxation solution time = 0.01 sec. (9.71 ticks)

        Nodes                                         Cuts/
   Node  Left     Objective  IInf  Best Integer    Best Bound    ItCnt     Gap

      0     0   348385.3466   472                 348385.3466      882         
      0     0   536363.0918   524                   Cuts: 726     1973         
      0     0   779629.2948   656                   Cuts: 726     2885         
*     0+    0                       1.01740e+07   779629.2948            92.34%
*     0+    0                      7973370.0000   779629.2948            90.22%
      0     0   922487.2586   704  7973370.0000     Cuts: 726     3680   88.43%
Detecting symmetries...
      0     2   922487.2586   704  7973370.0000   922487.2586     3680   88.43%
Elapsed time = 0.38 sec. (544.98 ticks, tree = 0.02 MB, solutions = 2)
    178   135  1026591.8073   653  7973370.0000   925012.3383    12960   88.40%
    708   578  1110252.7583   531  7973370.0000   925012.3383    22306   88.40%
   1317  1111  1238546.9705   447  7973370.0000   925012.3383    31027   88.40%

Performing restart 1

Repeating presolve.
Tried aggregator 1 time.
MIP Presolve modified 1222 coefficients.
Reduced MIP has 2505 rows, 2975 columns, and 7735 nonzeros.
Reduced MIP has 1195 binaries, 0 generals, 0 SOSs, and 0 indicators.
Presolve time = 0.00 sec. (3.84 ticks)
Tried aggregator 1 time.
MIP Presolve modified 1014 coefficients.
Reduced MIP has 2505 rows, 2975 columns, and 7735 nonzeros.
Reduced MIP has 1195 binaries, 0 generals, 0 SOSs, and 0 indicators.
Presolve time = 0.00 sec. (5.12 ticks)
Represolve time = 0.02 sec. (19.04 ticks)
   1742     0  1105860.9684   665  7973370.0000     Cuts: 726    42618   86.13%
   1742     0  1180484.2135   662  7973370.0000     Cuts: 726    43337   85.19%
   1742     0  1235565.3067   674  7973370.0000     Cuts: 726    43997   84.50%
   1742     2  1235565.3067   674  7973370.0000  1235565.3067    43997   84.50%
   1766    26  1319000.5070   574  7973370.0000  1235573.0061    44773   84.50%
   1802    62  1343421.9552   491  7973370.0000  1235573.0061    45484   84.50%
   1843    99  1467418.4963   531  7973370.0000  1235652.7044    47269   84.50%
   1852   104  1346715.9339   769  7973370.0000  1235652.7044    48617   84.50%
   1880   132  1526729.8407   411  7973370.0000  1280734.2911    59046   83.94%
*  1959+  175                      1802622.0000  1304279.9487            27.65%
*  2165+  328                      1770988.0000  1304279.9487            26.35%
*  2250+  399                      1734567.0000  1304279.9487            24.81%
   2519   535  1389589.0528   631  1734567.0000  1304279.9487    87601   24.81%
Elapsed time = 3.94 sec. (5249.69 ticks, tree = 1.22 MB, solutions = 5)
*  3484+ 1231                      1704234.0000  1304795.8894            23.44%
*  3485+ 1231                      1703891.0000  1304795.8894            23.42%
*  3485+ 1231                      1702236.0000  1304795.8894            23.35%
   3536  1516  1684025.2329   106  1702236.0000  1304795.8894   138248   23.35%
   3916  1839  1438522.4758   811  1702236.0000  1304795.8894   152614   23.35%
   4172  1974  1360447.7618   786  1702236.0000  1304795.8894   185715   23.35%
   4765  2533  1520976.1918   500  1702236.0000  1304795.8894   222978   23.35%
*  5178+ 2963                      1691877.0000  1304795.8894            22.88%
*  5374+ 2953                      1685744.0000  1304795.8894            22.60%

Cover cuts applied:  26
Implied bound cuts applied:  21
Flow cuts applied:  1149
Mixed integer rounding cuts applied:  1284
Flow path cuts applied:  59
Multi commodity flow cuts applied:  29
Lift and project cuts applied:  11
Gomory fractional cuts applied:  8

Root node processing (before b&c):
  Real time             =    0.37 sec. (542.82 ticks)
Parallel b&c, 8 threads:
  Real time             =    6.93 sec. (9464.23 ticks)
  Sync time (average)   =    0.55 sec.
  Wait time (average)   =    0.00 sec.
                          ------------
Total (root+branch&cut) =    7.31 sec. (10007.05 ticks)
Gap: 22.6%
Upper bound: 1.68574e+06
Lower bound: 1.3048e+06
End of CPLEX run. Time: 7.30749 seconds

===== New CPLEX run =====
Instance: /home/yorig/tuner/mpils-tests/instances/miplib/easy/lotsize.mps
Config: /scratch/yorig/mpils-results-grid-ticks-10000/easy/16proc/seed-9/4_lotsize_seed-9_20260425_202405/iterated_local_search/run_3_worker_0/ils_config_6296368378840754330.prm
========================

Selected objective sense:  MINIMIZE
Selected objective  name:  R1921
Selected RHS        name:  B
Selected bound      name:  BOUND
Version identifier: 22.1.2.0 | 2024-11-26 | 0edbb82fd
CPXPARAM_Threads                                 8
CPXPARAM_Parallel                                1
CPXPARAM_MIP_Cuts_Cliques                        -1
CPXPARAM_MIP_Cuts_FlowCovers                     2
CPXPARAM_MIP_Cuts_Implied                        2
CPXPARAM_MIP_Cuts_GUBCovers                      -1
CPXPARAM_MIP_Limits_GomoryCand                   800
CPXPARAM_MIP_Cuts_Gomory                         1
CPXPARAM_MIP_Cuts_MIRCut                         2
CPXPARAM_MIP_Cuts_Disjunctive                    -1
CPXPARAM_Emphasis_MIP                            3
CPXPARAM_DetTimeLimit                            10000
Tried aggregator 1 time.
MIP Presolve eliminated 595 rows and 0 columns.
MIP Presolve added 1190 rows and 0 columns.
MIP Presolve modified 10 coefficients.
Reduced MIP has 2515 rows, 2985 columns, and 7755 nonzeros.
Reduced MIP has 1195 binaries, 0 generals, 0 SOSs, and 0 indicators.
Presolve time = 0.00 sec. (4.53 ticks)
Probing fixed 0 vars, tightened 5487 bounds.
Probing time = 0.01 sec. (18.38 ticks)
Tried aggregator 2 times.
Detecting symmetries...
MIP Presolve modified 1206 coefficients.
Aggregator did 10 substitutions.
Reduced MIP has 2505 rows, 2975 columns, and 7735 nonzeros.
Reduced MIP has 1195 binaries, 0 generals, 0 SOSs, and 0 indicators.
Presolve time = 0.00 sec. (6.66 ticks)
Probing fixed 0 vars, tightened 2401 bounds.
Probing time = 0.00 sec. (6.41 ticks)
Clique table members: 160.
MIP emphasis: best bound.
MIP search method: dynamic search.
Parallel mode: deterministic, using up to 8 threads.
Root relaxation solution time = 0.01 sec. (9.68 ticks)

        Nodes                                         Cuts/
   Node  Left     Objective  IInf  Best Integer    Best Bound    ItCnt     Gap

      0     0   348385.3466   472                 348385.3466      882         
      0     0   482862.6158   635                   Cuts: 726     1882         
*     0+    0                       1.01740e+07   482862.6158            95.25%
*     0+    0                      7973370.0000   482862.6158            93.94%
      0     0   694418.6672   625  7973370.0000     Cuts: 726     2855   91.29%
      0     0   844662.3266   746  7973370.0000     Cuts: 726     3701   88.94%
      0     0   968085.9991   756  7973370.0000     Cuts: 726     4456   86.67%
*     0+    0                      2016180.0000  1063243.1814            47.26%
      0     0  1069046.0104   710  2016180.0000     Cuts: 726     5182   42.72%
Detecting symmetries...
      0     0  1142970.1195   689  2016180.0000     Cuts: 726     5807   41.22%
      0     0  1200634.5695   719  2016180.0000     Cuts: 726     6473   40.12%
      0     0  1230478.8807   765  2016180.0000     Cuts: 726     7033   38.47%
      0     0  1256446.3437   774  2016180.0000     Cuts: 726     7613   37.48%
      0     0  1276932.0305   776  2016180.0000     Cuts: 599     8200   36.65%
      0     0  1291462.1520   842  2016180.0000     Cuts: 528     8747   35.95%
*     0+    0                      1993939.0000  1291462.1520            35.23%
      0     0  1301340.4155   859  1993939.0000     Cuts: 533     9161   34.74%
*     0+    0                      1986371.0000  1301340.4155            34.49%
      0     0  1305487.4731   856  1986371.0000     Cuts: 389     9462   34.28%
      0     0  1310335.2934   852  1986371.0000     Cuts: 291     9852   34.03%
      0     0  1312310.7408   863  1986371.0000     Cuts: 281    10080   33.93%
      0     0  1314089.1899   842  1986371.0000     Cuts: 216    10249   33.84%
      0     0  1315106.4325   859  1986371.0000     Cuts: 210    10446   33.79%
      0     0  1316792.4749   878  1986371.0000     Cuts: 224    10672   33.71%
      0     0  1318316.4303   863  1986371.0000     Cuts: 270    10852   33.63%
      0     0  1319464.2002   859  1986371.0000     Cuts: 195    10987   33.57%
      0     0  1320419.9805   863  1986371.0000     Cuts: 129    11140   33.53%
      0     0  1320773.4436   875  1986371.0000      Cuts: 84    11226   33.51%
      0     0  1321161.9264   885  1986371.0000      Cuts: 68    11316   33.49%
      0     0  1321487.2157   879  1986371.0000     Cuts: 122    11391   33.47%
*     0+    0                      1951251.0000  1321487.2157            32.27%
      0     0  1321970.5052   890  1951251.0000      Cuts: 78    11458   32.25%
      0     0  1322157.8828   895  1951251.0000      Cuts: 91    11516   32.24%
      0     0  1322199.6202   898  1951251.0000      Cuts: 39    11550   32.24%

Cover cuts applied:  11
Implied bound cuts applied:  25
Flow cuts applied:  441
Mixed integer rounding cuts applied:  1030
Flow path cuts applied:  28
Multi commodity flow cuts applied:  57
Lift and project cuts applied:  43
Gomory fractional cuts applied:  8

Root node processing (before b&c):
  Real time             =    5.70 sec. (10004.96 ticks)
Parallel b&c, 8 threads:
  Real time             =    0.00 sec. (0.00 ticks)
  Sync time (average)   =    0.00 sec.
  Wait time (average)   =    0.00 sec.
                          ------------
Total (root+branch&cut) =    5.70 sec. (10004.96 ticks)
Gap: 32.24%
Upper bound: 1.95125e+06
Lower bound: 1.3222e+06
End of CPLEX run. Time: 5.70558 seconds

===== New CPLEX run =====
Instance: /home/yorig/tuner/mpils-tests/instances/miplib/easy/lotsize.mps
Config: /scratch/yorig/mpils-results-grid-ticks-10000/easy/16proc/seed-9/4_lotsize_seed-9_20260425_202405/iterated_local_search/run_3_worker_0/ils_config_12422495228530890438.prm
========================

Selected objective sense:  MINIMIZE
Selected objective  name:  R1921
Selected RHS        name:  B
Selected bound      name:  BOUND
Version identifier: 22.1.2.0 | 2024-11-26 | 0edbb82fd
CPXPARAM_Threads                                 8
CPXPARAM_Parallel                                1
CPXPARAM_MIP_Cuts_Cliques                        -1
CPXPARAM_MIP_Cuts_FlowCovers                     2
CPXPARAM_MIP_Cuts_Implied                        2
CPXPARAM_MIP_Cuts_GUBCovers                      -1
CPXPARAM_MIP_Cuts_Gomory                         1
CPXPARAM_MIP_Cuts_MIRCut                         2
CPXPARAM_MIP_Cuts_Disjunctive                    -1
CPXPARAM_Emphasis_MIP                            1
CPXPARAM_DetTimeLimit                            10000
Tried aggregator 1 time.
MIP Presolve eliminated 595 rows and 0 columns.
MIP Presolve added 1190 rows and 0 columns.
MIP Presolve modified 10 coefficients.
Reduced MIP has 2515 rows, 2985 columns, and 7755 nonzeros.
Reduced MIP has 1195 binaries, 0 generals, 0 SOSs, and 0 indicators.
Presolve time = 0.00 sec. (4.53 ticks)
Probing fixed 0 vars, tightened 5487 bounds.
Probing time = 0.01 sec. (18.38 ticks)
Tried aggregator 2 times.
Detecting symmetries...
MIP Presolve modified 1206 coefficients.
Aggregator did 10 substitutions.
Reduced MIP has 2505 rows, 2975 columns, and 7735 nonzeros.
Reduced MIP has 1195 binaries, 0 generals, 0 SOSs, and 0 indicators.
Presolve time = 0.00 sec. (6.66 ticks)
Probing fixed 0 vars, tightened 2401 bounds.
Probing time = 0.00 sec. (6.41 ticks)
Clique table members: 190.
MIP emphasis: integer feasibility.
MIP search method: dynamic search.
Parallel mode: deterministic, using up to 8 threads.
Root relaxation solution time = 0.01 sec. (9.71 ticks)

        Nodes                                         Cuts/
   Node  Left     Objective  IInf  Best Integer    Best Bound    ItCnt     Gap

      0     0   348385.3466   472                 348385.3466      882         
      0     0   527202.7677   563                   Cuts: 726     1982         
      0     0   756726.3449   607                   Cuts: 726     2909         
*     0+    0                       1.01740e+07   756726.3449            92.56%
*     0+    0                      7973370.0000   756726.3449            90.51%
      0     0   909618.6628   736  7973370.0000     Cuts: 726     3714   88.59%
Detecting symmetries...
      0     2   909618.6628   736  7973370.0000   909618.6628     3714   88.59%
Elapsed time = 0.39 sec. (588.73 ticks, tree = 0.02 MB, solutions = 2)
    386   321   973187.8138   588  7973370.0000   911167.0545     7903   88.57%
    838   717  1048926.7790   416  7973370.0000   911167.0545    12316   88.57%
   1500  1395  1216818.2493   394  7973370.0000   911167.0545    20897   88.57%

Performing restart 1

Repeating presolve.
Tried aggregator 1 time.
MIP Presolve modified 1157 coefficients.
Reduced MIP has 2505 rows, 2975 columns, and 7735 nonzeros.
Reduced MIP has 1195 binaries, 0 generals, 0 SOSs, and 0 indicators.
Presolve time = 0.00 sec. (3.78 ticks)
Tried aggregator 1 time.
MIP Presolve modified 1000 coefficients.
Reduced MIP has 2505 rows, 2975 columns, and 7735 nonzeros.
Reduced MIP has 1195 binaries, 0 generals, 0 SOSs, and 0 indicators.
Presolve time = 0.00 sec. (5.12 ticks)
Represolve time = 0.02 sec. (18.95 ticks)
   1766     0  1019605.3875   704  7973370.0000     Cuts: 726    29027   87.21%
   1766     0  1124232.5337   681  7973370.0000     Cuts: 726    29874   85.90%
   1766     0  1216847.5622   669  7973370.0000     Cuts: 726    30648   84.74%
   1766     2  1216847.5622   669  7973370.0000  1216847.5622    30648   84.74%
   1786    22  1264383.7529   603  7973370.0000  1216847.6469    31345   84.74%
   1826    60  1288030.3467   535  7973370.0000  1216847.6469    32112   84.74%
   1859     7  1246263.0323   637  7973370.0000  1216847.6469    30875   84.74%
   1866    94  1334224.2224   723  7973370.0000  1216881.8278    34356   84.74%
   1888   122  1456179.8660   488  7973370.0000  1216881.8278    47095   84.74%
   2146   335  1627556.6136   169  7973370.0000  1249350.4728    72425   84.33%
Elapsed time = 4.04 sec. (5357.18 ticks, tree = 1.66 MB, solutions = 2)
*  2322+  381                      1821083.0000  1249350.4728            31.40%
*  2382   476      integral     0  1817363.0000  1249350.4728    80182   31.25%
   2708   774  1547065.3963   382  1817363.0000  1249350.4728    95869   31.25%
*  3452+ 1423                      1741794.0000  1249350.4728            28.27%
*  3462  1434      integral     0  1702771.0000  1249350.4728   120283   26.63%
*  3466  1407      integral     0  1699365.0000  1249350.4728   120294   26.48%
*  3922  1763      integral     0  1690299.0000  1249350.4728   131894   26.09%
*  3925  1861      integral     0  1686314.0000  1249350.4728   138347   25.91%
*  4122+ 1912                      1678929.0000  1249350.4728            25.59%
*  4122+ 1912                      1664189.0000  1249350.4728            24.93%
*  4124+ 1912                      1578581.0000  1249350.4728            20.86%
*  4129+ 1912                      1567015.0000  1249350.4728            20.27%
*  4133+ 1912                      1564905.0000  1249350.4728            20.16%
*  4193+ 2007                      1564905.0000  1249350.4728            20.16%
   4614  1785  1479378.6681   522  1564905.0000  1249350.4728   162637   20.16%
   5383  2499  1425571.3096   560  1564905.0000  1249350.4728   189939   20.16%

Cover cuts applied:  25
Implied bound cuts applied:  15
Flow cuts applied:  775
Mixed integer rounding cuts applied:  1052
Flow path cuts applied:  78
Multi commodity flow cuts applied:  21
Lift and project cuts applied:  17
Gomory fractional cuts applied:  9

Root node processing (before b&c):
  Real time             =    0.38 sec. (586.64 ticks)
Parallel b&c, 8 threads:
  Real time             =    8.74 sec. (9416.81 ticks)
  Sync time (average)   =    2.60 sec.
  Wait time (average)   =    0.00 sec.
                          ------------
Total (root+branch&cut) =    9.13 sec. (10003.45 ticks)
Gap: 20.16%
Upper bound: 1.5649e+06
Lower bound: 1.24935e+06
End of CPLEX run. Time: 9.12623 seconds
